c dimacs generated by FastEx
c f701 45
c f710 44
c f711 43
c g71 32
c s712 33
c s713 34
c s714 36
c s715 39
c s716 46
c s723 35
c s724 37
c s725 40
c s726 47
c s734 38
c s735 41
c s736 48
c s745 42
c s746 49
c s756 50
c x71 1
c x710 10
c x711 11
c x712 12
c x713 13
c x714 14
c x715 15
c x716 16
c x717 17
c x718 18
c x719 19
c x72 2
c x720 20
c x721 21
c x722 22
c x723 23
c x724 24
c x725 25
c x726 26
c x727 27
c x728 28
c x729 29
c x73 3
c x730 30
c x731 31
c x74 4
c x75 5
c x76 6
c x77 7
c x78 8
c x79 9
p cnf 50 828
-33 -1 0
-33 -2 0
-33 -3 0
-33 -4 0
-33 -5 0
-33 -6 0
-33 -7 0
-33 8 -45 0
-33 -8 45 0
-33 9 -45 0
-33 -9 45 0
-33 10 -45 0
-33 -10 45 0
-33 11 -45 0
-33 -11 45 0
-33 12 -45 0
-33 -12 45 0
-33 13 -45 0
-33 -13 45 0
-33 14 -45 0
-33 -14 45 0
-33 15 -45 0
-33 -15 45 0
-33 16 -44 0
-33 -16 44 0
-33 17 -44 0
-33 -17 44 0
-33 18 -44 0
-33 -18 44 0
-33 19 -44 0
-33 -19 44 0
-33 20 -44 0
-33 -20 44 0
-33 21 -44 0
-33 -21 44 0
-33 22 -44 0
-33 -22 44 0
-33 23 -44 0
-33 -23 44 0
-33 24 -43 0
-33 -24 43 0
-33 25 -43 0
-33 -25 43 0
-33 26 -43 0
-33 -26 43 0
-33 27 -43 0
-33 -27 43 0
-33 28 -43 0
-33 -28 43 0
-33 29 -43 0
-33 -29 43 0
-33 30 -43 0
-33 -30 43 0
-33 31 -43 0
-33 -31 43 0
-34 -1 0
-34 -2 0
-34 -3 0
-34 4 -45 0
-34 -4 45 0
-34 5 -45 0
-34 -5 45 0
-34 6 -45 0
-34 -6 45 0
-34 7 -45 0
-34 -7 45 0
-34 -8 0
-34 -9 0
-34 -10 0
-34 -11 0
-34 12 -45 0
-34 -12 45 0
-34 13 -45 0
-34 -13 45 0
-34 14 -45 0
-34 -14 45 0
-34 15 -45 0
-34 -15 45 0
-34 16 -44 0
-34 -16 44 0
-34 17 -44 0
-34 -17 44 0
-34 18 -44 0
-34 -18 44 0
-34 19 -44 0
-34 -19 44 0
-34 20 -43 0
-34 -20 43 0
-34 21 -43 0
-34 -21 43 0
-34 22 -43 0
-34 -22 43 0
-34 23 -43 0
-34 -23 43 0
-34 24 -44 0
-34 -24 44 0
-34 25 -44 0
-34 -25 44 0
-34 26 -44 0
-34 -26 44 0
-34 27 -44 0
-34 -27 44 0
-34 28 -43 0
-34 -28 43 0
-34 29 -43 0
-34 -29 43 0
-34 30 -43 0
-34 -30 43 0
-34 31 -43 0
-34 -31 43 0
-35 -1 0
-35 -2 0
-35 -3 0
-35 4 -45 0
-35 -4 45 0
-35 5 -45 0
-35 -5 45 0
-35 6 -45 0
-35 -6 45 0
-35 7 -45 0
-35 -7 45 0
-35 8 -44 0
-35 -8 44 0
-35 9 -44 0
-35 -9 44 0
-35 10 -44 0
-35 -10 44 0
-35 11 -44 0
-35 -11 44 0
-35 12 -43 0
-35 -12 43 0
-35 13 -43 0
-35 -13 43 0
-35 14 -43 0
-35 -14 43 0
-35 15 -43 0
-35 -15 43 0
-35 -16 0
-35 -17 0
-35 -18 0
-35 -19 0
-35 20 -45 0
-35 -20 45 0
-35 21 -45 0
-35 -21 45 0
-35 22 -45 0
-35 -22 45 0
-35 23 -45 0
-35 -23 45 0
-35 24 -44 0
-35 -24 44 0
-35 25 -44 0
-35 -25 44 0
-35 26 -44 0
-35 -26 44 0
-35 27 -44 0
-35 -27 44 0
-35 28 -43 0
-35 -28 43 0
-35 29 -43 0
-35 -29 43 0
-35 30 -43 0
-35 -30 43 0
-35 31 -43 0
-35 -31 43 0
-36 -1 0
-36 2 -45 0
-36 -2 45 0
-36 3 -45 0
-36 -3 45 0
-36 -4 0
-36 -5 0
-36 6 -45 0
-36 -6 45 0
-36 7 -45 0
-36 -7 45 0
-36 -8 0
-36 -9 0
-36 10 -45 0
-36 -10 45 0
-36 11 -45 0
-36 -11 45 0
-36 -12 0
-36 -13 0
-36 14 -45 0
-36 -14 45 0
-36 15 -45 0
-36 -15 45 0
-36 16 -44 0
-36 -16 44 0
-36 17 -44 0
-36 -17 44 0
-36 18 -43 0
-36 -18 43 0
-36 19 -43 0
-36 -19 43 0
-36 20 -44 0
-36 -20 44 0
-36 21 -44 0
-36 -21 44 0
-36 22 -43 0
-36 -22 43 0
-36 23 -43 0
-36 -23 43 0
-36 24 -44 0
-36 -24 44 0
-36 25 -44 0
-36 -25 44 0
-36 26 -43 0
-36 -26 43 0
-36 27 -43 0
-36 -27 43 0
-36 28 -44 0
-36 -28 44 0
-36 29 -44 0
-36 -29 44 0
-36 30 -43 0
-36 -30 43 0
-36 31 -43 0
-36 -31 43 0
-37 -1 0
-37 2 -45 0
-37 -2 45 0
-37 3 -45 0
-37 -3 45 0
-37 -4 0
-37 -5 0
-37 6 -45 0
-37 -6 45 0
-37 7 -45 0
-37 -7 45 0
-37 8 -44 0
-37 -8 44 0
-37 9 -44 0
-37 -9 44 0
-37 10 -43 0
-37 -10 43 0
-37 11 -43 0
-37 -11 43 0
-37 12 -44 0
-37 -12 44 0
-37 13 -44 0
-37 -13 44 0
-37 14 -43 0
-37 -14 43 0
-37 15 -43 0
-37 -15 43 0
-37 -16 0
-37 -17 0
-37 18 -45 0
-37 -18 45 0
-37 19 -45 0
-37 -19 45 0
-37 -20 0
-37 -21 0
-37 22 -45 0
-37 -22 45 0
-37 23 -45 0
-37 -23 45 0
-37 24 -44 0
-37 -24 44 0
-37 25 -44 0
-37 -25 44 0
-37 26 -43 0
-37 -26 43 0
-37 27 -43 0
-37 -27 43 0
-37 28 -44 0
-37 -28 44 0
-37 29 -44 0
-37 -29 44 0
-37 30 -43 0
-37 -30 43 0
-37 31 -43 0
-37 -31 43 0
-38 -1 0
-38 2 -45 0
-38 -2 45 0
-38 3 -45 0
-38 -3 45 0
-38 4 -44 0
-38 -4 44 0
-38 5 -44 0
-38 -5 44 0
-38 6 -43 0
-38 -6 43 0
-38 7 -43 0
-38 -7 43 0
-38 -8 0
-38 -9 0
-38 10 -45 0
-38 -10 45 0
-38 11 -45 0
-38 -11 45 0
-38 12 -44 0
-38 -12 44 0
-38 13 -44 0
-38 -13 44 0
-38 14 -43 0
-38 -14 43 0
-38 15 -43 0
-38 -15 43 0
-38 -16 0
-38 -17 0
-38 18 -45 0
-38 -18 45 0
-38 19 -45 0
-38 -19 45 0
-38 20 -44 0
-38 -20 44 0
-38 21 -44 0
-38 -21 44 0
-38 22 -43 0
-38 -22 43 0
-38 23 -43 0
-38 -23 43 0
-38 -24 0
-38 -25 0
-38 26 -45 0
-38 -26 45 0
-38 27 -45 0
-38 -27 45 0
-38 28 -44 0
-38 -28 44 0
-38 29 -44 0
-38 -29 44 0
-38 30 -43 0
-38 -30 43 0
-38 31 -43 0
-38 -31 43 0
-39 1 -45 0
-39 -1 45 0
-39 -2 0
-39 3 -45 0
-39 -3 45 0
-39 -4 0
-39 5 -45 0
-39 -5 45 0
-39 -6 0
-39 7 -45 0
-39 -7 45 0
-39 -8 0
-39 9 -45 0
-39 -9 45 0
-39 -10 0
-39 11 -45 0
-39 -11 45 0
-39 -12 0
-39 13 -45 0
-39 -13 45 0
-39 -14 0
-39 15 -45 0
-39 -15 45 0
-39 16 -44 0
-39 -16 44 0
-39 17 -43 0
-39 -17 43 0
-39 18 -44 0
-39 -18 44 0
-39 19 -43 0
-39 -19 43 0
-39 20 -44 0
-39 -20 44 0
-39 21 -43 0
-39 -21 43 0
-39 22 -44 0
-39 -22 44 0
-39 23 -43 0
-39 -23 43 0
-39 24 -44 0
-39 -24 44 0
-39 25 -43 0
-39 -25 43 0
-39 26 -44 0
-39 -26 44 0
-39 27 -43 0
-39 -27 43 0
-39 28 -44 0
-39 -28 44 0
-39 29 -43 0
-39 -29 43 0
-39 30 -44 0
-39 -30 44 0
-39 31 -43 0
-39 -31 43 0
-40 1 -45 0
-40 -1 45 0
-40 -2 0
-40 3 -45 0
-40 -3 45 0
-40 -4 0
-40 5 -45 0
-40 -5 45 0
-40 -6 0
-40 7 -45 0
-40 -7 45 0
-40 8 -44 0
-40 -8 44 0
-40 9 -43 0
-40 -9 43 0
-40 10 -44 0
-40 -10 44 0
-40 11 -43 0
-40 -11 43 0
-40 12 -44 0
-40 -12 44 0
-40 13 -43 0
-40 -13 43 0
-40 14 -44 0
-40 -14 44 0
-40 15 -43 0
-40 -15 43 0
-40 -16 0
-40 17 -45 0
-40 -17 45 0
-40 -18 0
-40 19 -45 0
-40 -19 45 0
-40 -20 0
-40 21 -45 0
-40 -21 45 0
-40 -22 0
-40 23 -45 0
-40 -23 45 0
-40 24 -44 0
-40 -24 44 0
-40 25 -43 0
-40 -25 43 0
-40 26 -44 0
-40 -26 44 0
-40 27 -43 0
-40 -27 43 0
-40 28 -44 0
-40 -28 44 0
-40 29 -43 0
-40 -29 43 0
-40 30 -44 0
-40 -30 44 0
-40 31 -43 0
-40 -31 43 0
-41 1 -45 0
-41 -1 45 0
-41 -2 0
-41 3 -45 0
-41 -3 45 0
-41 4 -44 0
-41 -4 44 0
-41 5 -43 0
-41 -5 43 0
-41 6 -44 0
-41 -6 44 0
-41 7 -43 0
-41 -7 43 0
-41 -8 0
-41 9 -45 0
-41 -9 45 0
-41 -10 0
-41 11 -45 0
-41 -11 45 0
-41 12 -44 0
-41 -12 44 0
-41 13 -43 0
-41 -13 43 0
-41 14 -44 0
-41 -14 44 0
-41 15 -43 0
-41 -15 43 0
-41 -16 0
-41 17 -45 0
-41 -17 45 0
-41 -18 0
-41 19 -45 0
-41 -19 45 0
-41 20 -44 0
-41 -20 44 0
-41 21 -43 0
-41 -21 43 0
-41 22 -44 0
-41 -22 44 0
-41 23 -43 0
-41 -23 43 0
-41 -24 0
-41 25 -45 0
-41 -25 45 0
-41 -26 0
-41 27 -45 0
-41 -27 45 0
-41 28 -44 0
-41 -28 44 0
-41 29 -43 0
-41 -29 43 0
-41 30 -44 0
-41 -30 44 0
-41 31 -43 0
-41 -31 43 0
-42 1 -45 0
-42 -1 45 0
-42 2 -44 0
-42 -2 44 0
-42 3 -43 0
-42 -3 43 0
-42 -4 0
-42 5 -45 0
-42 -5 45 0
-42 6 -44 0
-42 -6 44 0
-42 7 -43 0
-42 -7 43 0
-42 -8 0
-42 9 -45 0
-42 -9 45 0
-42 10 -44 0
-42 -10 44 0
-42 11 -43 0
-42 -11 43 0
-42 -12 0
-42 13 -45 0
-42 -13 45 0
-42 14 -44 0
-42 -14 44 0
-42 15 -43 0
-42 -15 43 0
-42 -16 0
-42 17 -45 0
-42 -17 45 0
-42 18 -44 0
-42 -18 44 0
-42 19 -43 0
-42 -19 43 0
-42 -20 0
-42 21 -45 0
-42 -21 45 0
-42 22 -44 0
-42 -22 44 0
-42 23 -43 0
-42 -23 43 0
-42 -24 0
-42 25 -45 0
-42 -25 45 0
-42 26 -44 0
-42 -26 44 0
-42 27 -43 0
-42 -27 43 0
-42 -28 0
-42 29 -45 0
-42 -29 45 0
-42 30 -44 0
-42 -30 44 0
-42 31 -43 0
-42 -31 43 0
-46 -1 0
-46 -2 0
-46 -3 0
-46 -4 0
-46 5 -45 0
-46 -5 45 0
-46 6 -45 0
-46 -6 45 0
-46 -7 0
-46 -8 0
-46 -9 0
-46 -10 0
-46 -11 0
-46 -12 0
-46 -13 0
-46 -14 0
-46 -15 0
-46 16 -44 0
-46 -16 44 0
-46 17 -44 0
-46 -17 44 0
-46 18 -44 0
-46 -18 44 0
-46 19 -44 0
-46 -19 44 0
-46 20 -44 0
-46 -20 44 0
-46 21 -43 0
-46 -21 43 0
-46 22 -43 0
-46 -22 43 0
-46 23 -44 0
-46 -23 44 0
-46 24 -44 0
-46 -24 44 0
-46 25 -44 0
-46 -25 44 0
-46 26 -44 0
-46 -26 44 0
-46 27 -44 0
-46 -27 44 0
-46 28 -44 0
-46 -28 44 0
-46 29 -44 0
-46 -29 44 0
-46 30 -44 0
-46 -30 44 0
-46 31 -44 0
-46 -31 44 0
-47 -1 0
-47 -2 0
-47 -3 0
-47 -4 0
-47 5 -45 0
-47 -5 45 0
-47 6 -45 0
-47 -6 45 0
-47 -7 0
-47 8 -44 0
-47 -8 44 0
-47 9 -44 0
-47 -9 44 0
-47 10 -44 0
-47 -10 44 0
-47 11 -44 0
-47 -11 44 0
-47 12 -44 0
-47 -12 44 0
-47 13 -44 0
-47 -13 44 0
-47 14 -44 0
-47 -14 44 0
-47 15 -44 0
-47 -15 44 0
-47 -16 0
-47 -17 0
-47 -18 0
-47 -19 0
-47 -20 0
-47 21 -45 0
-47 -21 45 0
-47 22 -45 0
-47 -22 45 0
-47 -23 0
-47 24 -44 0
-47 -24 44 0
-47 25 -44 0
-47 -25 44 0
-47 26 -44 0
-47 -26 44 0
-47 27 -44 0
-47 -27 44 0
-47 28 -44 0
-47 -28 44 0
-47 29 -44 0
-47 -29 44 0
-47 30 -44 0
-47 -30 44 0
-47 31 -44 0
-47 -31 44 0
-48 -1 0
-48 -2 0
-48 -3 0
-48 4 -44 0
-48 -4 44 0
-48 5 -43 0
-48 -5 43 0
-48 6 -43 0
-48 -6 43 0
-48 7 -44 0
-48 -7 44 0
-48 -8 0
-48 -9 0
-48 -10 0
-48 -11 0
-48 12 -44 0
-48 -12 44 0
-48 13 -44 0
-48 -13 44 0
-48 14 -44 0
-48 -14 44 0
-48 15 -44 0
-48 -15 44 0
-48 -16 0
-48 -17 0
-48 -18 0
-48 -19 0
-48 20 -44 0
-48 -20 44 0
-48 21 -43 0
-48 -21 43 0
-48 22 -43 0
-48 -22 43 0
-48 23 -44 0
-48 -23 44 0
-48 -24 0
-48 -25 0
-48 -26 0
-48 -27 0
-48 28 -44 0
-48 -28 44 0
-48 29 -44 0
-48 -29 44 0
-48 30 -44 0
-48 -30 44 0
-48 31 -44 0
-48 -31 44 0
-49 -1 0
-49 2 -44 0
-49 -2 44 0
-49 3 -44 0
-49 -3 44 0
-49 -4 0
-49 5 -45 0
-49 -5 45 0
-49 6 -43 0
-49 -6 43 0
-49 7 -44 0
-49 -7 44 0
-49 -8 0
-49 -9 0
-49 10 -44 0
-49 -10 44 0
-49 11 -44 0
-49 -11 44 0
-49 -12 0
-49 -13 0
-49 14 -44 0
-49 -14 44 0
-49 15 -44 0
-49 -15 44 0
-49 -16 0
-49 -17 0
-49 18 -44 0
-49 -18 44 0
-49 19 -44 0
-49 -19 44 0
-49 -20 0
-49 21 -45 0
-49 -21 45 0
-49 22 -43 0
-49 -22 43 0
-49 23 -44 0
-49 -23 44 0
-49 -24 0
-49 -25 0
-49 26 -44 0
-49 -26 44 0
-49 27 -44 0
-49 -27 44 0
-49 -28 0
-49 -29 0
-49 30 -44 0
-49 -30 44 0
-49 31 -44 0
-49 -31 44 0
-50 1 -44 0
-50 -1 44 0
-50 -2 0
-50 3 -44 0
-50 -3 44 0
-50 -4 0
-50 5 -43 0
-50 -5 43 0
-50 6 -45 0
-50 -6 45 0
-50 7 -44 0
-50 -7 44 0
-50 -8 0
-50 9 -44 0
-50 -9 44 0
-50 -10 0
-50 11 -44 0
-50 -11 44 0
-50 -12 0
-50 13 -44 0
-50 -13 44 0
-50 -14 0
-50 15 -44 0
-50 -15 44 0
-50 -16 0
-50 17 -44 0
-50 -17 44 0
-50 -18 0
-50 19 -44 0
-50 -19 44 0
-50 -20 0
-50 21 -43 0
-50 -21 43 0
-50 22 -45 0
-50 -22 45 0
-50 23 -44 0
-50 -23 44 0
-50 -24 0
-50 25 -44 0
-50 -25 44 0
-50 -26 0
-50 27 -44 0
-50 -27 44 0
-50 -28 0
-50 29 -44 0
-50 -29 44 0
-50 -30 0
-50 31 -44 0
-50 -31 44 0
-32 -1 0
-32 -2 0
-32 -3 0
-32 -4 0
-32 5 0
-32 6 0
-32 -7 0
-32 -8 0
-32 -9 0
-32 -10 0
-32 -11 0
-32 -12 0
-32 -13 0
-32 -14 0
-32 -15 0
-32 16 0
-32 17 0
-32 18 0
-32 19 0
-32 20 0
-32 -21 0
-32 -22 0
-32 23 0
-32 24 0
-32 25 0
-32 26 0
-32 27 0
-32 28 0
-32 29 0
-32 30 0
-32 31 0
32 0
33 34 35 36 37 38 39 40 41 42 46 47 48 49 50 0
